c nIsolatedPIs 0
c maxPI 32
p cnf 177 436
c gate 33 -7 23 0
-7 -33 0
23 -33 0
7 -23 33 0
c gate 34 -2 18 0
-2 -34 0
18 -34 0
2 -18 34 0
c gate 35 -1 17 0
-1 -35 0
17 -35 0
1 -17 35 0
c gate 36 -34 -35 0
-34 -36 0
-35 -36 0
34 35 36 0
c gate 37 2 -18 0
2 -37 0
-18 -37 0
-2 18 37 0
c gate 38 3 -19 0
3 -38 0
-19 -38 0
-3 19 38 0
c gate 39 -37 -38 0
-37 -39 0
-38 -39 0
37 38 39 0
c gate 40 -36 39 0
-36 -40 0
39 -40 0
36 -39 40 0
c gate 41 -4 20 0
-4 -41 0
20 -41 0
4 -20 41 0
c gate 42 -3 19 0
-3 -42 0
19 -42 0
3 -19 42 0
c gate 43 -41 -42 0
-41 -43 0
-42 -43 0
41 42 43 0
c gate 44 -40 43 0
-40 -44 0
43 -44 0
40 -43 44 0
c gate 45 5 -21 0
5 -45 0
-21 -45 0
-5 21 45 0
c gate 46 4 -20 0
4 -46 0
-20 -46 0
-4 20 46 0
c gate 47 -45 -46 0
-45 -47 0
-46 -47 0
45 46 47 0
c gate 48 -44 47 0
-44 -48 0
47 -48 0
44 -47 48 0
c gate 49 -6 -22 0
-6 -49 0
-22 -49 0
6 22 49 0
c gate 50 6 22 0
6 -50 0
22 -50 0
-6 -22 50 0
c gate 51 -49 -50 0
-49 -51 0
-50 -51 0
49 50 51 0
c gate 52 -5 21 0
-5 -52 0
21 -52 0
5 -21 52 0
c gate 53 -51 -52 0
-51 -53 0
-52 -53 0
51 52 53 0
c gate 54 -48 53 0
-48 -54 0
53 -54 0
48 -53 54 0
c gate 55 -33 54 0
-33 -55 0
54 -55 0
33 -54 55 0
c gate 56 7 -23 0
7 -56 0
-23 -56 0
-7 23 56 0
c gate 57 6 -22 0
6 -57 0
-22 -57 0
-6 22 57 0
c gate 58 -33 57 0
-33 -58 0
57 -58 0
33 -57 58 0
c gate 59 -56 -58 0
-56 -59 0
-58 -59 0
56 58 59 0
c gate 60 -55 59 0
-55 -60 0
59 -60 0
55 -59 60 0
c gate 61 8 24 0
8 -61 0
24 -61 0
-8 -24 61 0
c gate 62 -8 -24 0
-8 -62 0
-24 -62 0
8 24 62 0
c gate 63 -61 -62 0
-61 -63 0
-62 -63 0
61 62 63 0
c gate 64 -60 -63 0
-60 -64 0
-63 -64 0
60 63 64 0
c gate 65 59 63 0
59 -65 0
63 -65 0
-59 -63 65 0
c gate 66 -60 65 0
-60 -66 0
65 -66 0
60 -65 66 0
c gate 67 -64 -66 0
-64 -67 0
-66 -67 0
64 66 67 0
c gate 68 -33 -56 0
-33 -68 0
-56 -68 0
33 56 68 0
c gate 69 54 -68 0
54 -69 0
-68 -69 0
-54 68 69 0
c gate 70 -2 -18 0
-2 -70 0
-18 -70 0
2 18 70 0
c gate 71 1 17 0
1 -71 0
17 -71 0
-1 -17 71 0
c gate 72 -70 71 0
-70 -72 0
71 -72 0
70 -71 72 0
c gate 73 3 19 0
3 -73 0
19 -73 0
-3 -19 73 0
c gate 74 2 18 0
2 -74 0
18 -74 0
-2 -18 74 0
c gate 75 -73 -74 0
-73 -75 0
-74 -75 0
73 74 75 0
c gate 76 -72 75 0
-72 -76 0
75 -76 0
72 -75 76 0
c gate 77 -4 -20 0
-4 -77 0
-20 -77 0
4 20 77 0
c gate 78 -3 -19 0
-3 -78 0
-19 -78 0
3 19 78 0
c gate 79 -77 -78 0
-77 -79 0
-78 -79 0
77 78 79 0
c gate 80 -76 79 0
-76 -80 0
79 -80 0
76 -79 80 0
c gate 81 4 20 0
4 -81 0
20 -81 0
-4 -20 81 0
c gate 82 5 21 0
5 -82 0
21 -82 0
-5 -21 82 0
c gate 83 -81 -82 0
-81 -83 0
-82 -83 0
81 82 83 0
c gate 84 -80 83 0
-80 -84 0
83 -84 0
80 -83 84 0
c gate 85 -5 -21 0
-5 -85 0
-21 -85 0
5 21 85 0
c gate 86 -49 -85 0
-49 -86 0
-85 -86 0
49 85 86 0
c gate 87 -84 86 0
-84 -87 0
86 -87 0
84 -86 87 0
c gate 88 -50 -68 0
-50 -88 0
-68 -88 0
50 68 88 0
c gate 89 -87 88 0
-87 -89 0
88 -89 0
87 -88 89 0
c gate 90 63 89 0
63 -90 0
89 -90 0
-63 -89 90 0
c gate 91 -7 -23 0
-7 -91 0
-23 -91 0
7 23 91 0
c gate 92 -61 91 0
-61 -92 0
91 -92 0
61 -91 92 0
c gate 93 -9 -25 0
-9 -93 0
-25 -93 0
9 25 93 0
c gate 94 -62 -93 0
-62 -94 0
-93 -94 0
62 93 94 0
c gate 95 -92 94 0
-92 -95 0
94 -95 0
92 -94 95 0
c gate 96 -11 -27 0
-11 -96 0
-27 -96 0
11 27 96 0
c gate 97 12 -28 0
12 -97 0
-28 -97 0
-12 28 97 0
c gate 98 -12 28 0
-12 -98 0
28 -98 0
12 -28 98 0
c gate 99 -97 -98 0
-97 -99 0
-98 -99 0
97 98 99 0
c gate 100 -96 -99 0
-96 -100 0
-99 -100 0
96 99 100 0
c gate 101 11 27 0
11 -101 0
27 -101 0
-11 -27 101 0
c gate 102 10 26 0
10 -102 0
26 -102 0
-10 -26 102 0
c gate 103 -101 -102 0
-101 -103 0
-102 -103 0
101 102 103 0
c gate 104 9 25 0
9 -104 0
25 -104 0
-9 -25 104 0
c gate 105 -10 -26 0
-10 -105 0
-26 -105 0
10 26 105 0
c gate 106 -104 -105 0
-104 -106 0
-105 -106 0
104 105 106 0
c gate 107 103 106 0
103 -107 0
106 -107 0
-103 -106 107 0
c gate 108 100 107 0
100 -108 0
107 -108 0
-100 -107 108 0
c gate 109 95 108 0
95 -109 0
108 -109 0
-95 -108 109 0
c gate 110 90 109 0
90 -110 0
109 -110 0
-90 -109 110 0
c gate 111 -90 95 0
-90 -111 0
95 -111 0
90 -95 111 0
c gate 112 -104 -111 0
-104 -112 0
-111 -112 0
104 111 112 0
c gate 113 -105 -112 0
-105 -113 0
-112 -113 0
105 112 113 0
c gate 114 103 -113 0
103 -114 0
-113 -114 0
-103 113 114 0
c gate 115 100 -114 0
100 -115 0
-114 -115 0
-100 114 115 0
c gate 116 -14 -30 0
-14 -116 0
-30 -116 0
14 30 116 0
c gate 117 14 30 0
14 -117 0
30 -117 0
-14 -30 117 0
c gate 118 -116 -117 0
-116 -118 0
-117 -118 0
116 117 118 0
c gate 119 -99 118 0
-99 -119 0
118 -119 0
99 -118 119 0
c gate 120 15 -31 0
15 -120 0
-31 -120 0
-15 31 120 0
c gate 121 -15 31 0
-15 -121 0
31 -121 0
15 -31 121 0
c gate 122 -120 -121 0
-120 -122 0
-121 -122 0
120 121 122 0
c gate 123 -16 -32 0
-16 -123 0
-32 -123 0
16 32 123 0
c gate 124 16 32 0
16 -124 0
32 -124 0
-16 -32 124 0
c gate 125 -123 -124 0
-123 -125 0
-124 -125 0
123 124 125 0
c gate 126 13 -29 0
13 -126 0
-29 -126 0
-13 29 126 0
c gate 127 -13 29 0
-13 -127 0
29 -127 0
13 -29 127 0
c gate 128 -126 -127 0
-126 -128 0
-127 -128 0
126 127 128 0
c gate 129 125 -128 0
125 -129 0
-128 -129 0
-125 128 129 0
c gate 130 -122 129 0
-122 -130 0
129 -130 0
122 -129 130 0
c gate 131 119 130 0
119 -131 0
130 -131 0
-119 -130 131 0
c gate 132 115 -131 0
115 -132 0
-131 -132 0
-115 131 132 0
c gate 133 -110 -132 0
-110 -133 0
-132 -133 0
110 132 133 0
c gate 134 -54 -133 0
-54 -134 0
-133 -134 0
54 133 134 0
c gate 135 -69 -134 0
-69 -135 0
-134 -135 0
69 134 135 0
c gate 136 -9 25 0
-9 -136 0
25 -136 0
9 -25 136 0
c gate 137 8 -24 0
8 -137 0
-24 -137 0
-8 24 137 0
c gate 138 -93 -104 0
-93 -138 0
-104 -138 0
93 104 138 0
c gate 139 -137 -138 0
-137 -139 0
-138 -139 0
137 138 139 0
c gate 140 -64 139 0
-64 -140 0
139 -140 0
64 -139 140 0
c gate 141 -136 -140 0
-136 -141 0
-140 -141 0
136 140 141 0
c gate 142 -10 26 0
-10 -142 0
26 -142 0
10 -26 142 0
c gate 143 141 -142 0
141 -143 0
-142 -143 0
-141 142 143 0
c gate 144 -96 -101 0
-96 -144 0
-101 -144 0
96 101 144 0
c gate 145 10 -26 0
10 -145 0
-26 -145 0
-10 26 145 0
c gate 146 -144 -145 0
-144 -146 0
-145 -146 0
144 145 146 0
c gate 147 -143 146 0
-143 -147 0
146 -147 0
143 -146 147 0
c gate 148 -66 135 0
-66 -148 0
135 -148 0
66 -135 148 0
c gate 149 -64 -148 0
-64 -149 0
-148 -149 0
64 148 149 0
c gate 150 -102 -105 0
-102 -150 0
-105 -150 0
102 105 150 0
c gate 151 -138 -150 0
-138 -151 0
-150 -151 0
138 150 151 0
c gate 152 64 -151 0
64 -152 0
-151 -152 0
-64 151 152 0
c gate 153 -149 -152 0
-149 -153 0
-152 -153 0
149 152 153 0
c gate 154 144 -150 0
144 -154 0
-150 -154 0
-144 150 154 0
c gate 155 139 154 0
139 -155 0
154 -155 0
-139 -154 155 0
c gate 156 141 155 0
141 -156 0
155 -156 0
-141 -155 156 0
c gate 157 153 -156 0
153 -157 0
-156 -157 0
-153 156 157 0
c gate 158 -147 -157 0
-147 -158 0
-157 -158 0
147 157 158 0
c gate 159 99 -118 0
99 -159 0
-118 -159 0
-99 118 159 0
c gate 160 -125 128 0
-125 -160 0
128 -160 0
125 -128 160 0
c gate 161 122 160 0
122 -161 0
160 -161 0
-122 -160 161 0
c gate 162 159 161 0
159 -162 0
161 -162 0
-159 -161 162 0
c gate 163 147 162 0
147 -163 0
162 -163 0
-147 -162 163 0
c gate 164 -158 -163 0
-158 -164 0
-163 -164 0
158 163 164 0
c gate 165 -135 164 0
-135 -165 0
164 -165 0
135 -164 165 0
c gate 166 -89 -115 0
-89 -166 0
-115 -166 0
89 115 166 0
c gate 167 -164 -166 0
-164 -167 0
-166 -167 0
164 166 167 0
c gate 168 133 -167 0
133 -168 0
-167 -168 0
-133 167 168 0
c gate 169 -133 -164 0
-133 -169 0
-164 -169 0
133 164 169 0
c gate 170 -168 -169 0
-168 -170 0
-169 -170 0
168 169 170 0
c gate 171 -54 -170 0
-54 -171 0
-170 -171 0
54 170 171 0
c gate 172 -69 -164 0
-69 -172 0
-164 -172 0
69 164 172 0
c gate 173 -171 172 0
-171 -173 0
172 -173 0
171 -172 173 0
c gate 174 -165 -173 0
-165 -174 0
-173 -174 0
165 173 174 0
c gate 175 67 174 0
67 -175 0
174 -175 0
-67 -174 175 0
c gate 176 -67 -174 0
-67 -176 0
-174 -176 0
67 174 176 0
c gate 177 -175 -176 0
-175 -177 0
-176 -177 0
175 176 177 0
c PO
177 0
